c 
p cnf 120 201
-15 -7 21 0
-21 10 22 0
-22 -16 -13 0
-7 23 24 0
-7 23 -24 0
-7 -23 24 0
-7 -23 -24 0
16 17 25 0
-25 19 11 0
4 10 -19 0
-9 26 27 0
-9 26 -27 0
-9 -26 27 0
-9 -26 -27 0
13 3 28 0
-28 15 -19 0
-16 7 -5 0
-9 4 29 0
-9 4 -29 0
-15 14 30 0
-15 14 -30 0
11 15 31 0
-31 13 12 0
4 8 32 0
-32 12 11 0
-3 -16 33 0
-33 4 2 0
12 -16 -7 0
-17 14 34 0
-34 16 8 0
-14 35 36 0
-14 35 -36 0
-14 -35 36 0
-14 -35 -36 0
9 -20 37 0
9 -20 -37 0
-16 2 38 0
-38 -9 -8 0
-17 -13 39 0
-17 -13 -39 0
-15 40 41 0
-15 40 -41 0
-15 -40 41 0
-15 -40 -41 0
-13 4 -2 0
9 11 8 0
-1 18 42 0
-1 18 -42 0
2 -18 43 0
-43 -9 -4 0
15 -12 44 0
-44 14 45 0
-45 8 -4 0
20 -8 46 0
20 -8 -46 0
-18 11 47 0
-18 11 -47 0
-15 16 48 0
-15 16 -48 0
-1 17 16 0
20 49 50 0
20 49 -50 0
20 -49 50 0
20 -49 -50 0
7 -14 -18 0
3 51 52 0
3 51 -52 0
3 -51 52 0
3 -51 -52 0
17 53 54 0
17 53 -54 0
17 -53 54 0
17 -53 -54 0
-8 -18 -3 0
-10 55 56 0
-10 55 -56 0
-10 -55 56 0
-10 -55 -56 0
8 19 5 0
-16 1 57 0
-57 -3 58 0
-58 -12 5 0
-15 -9 59 0
-15 -9 -59 0
8 60 61 0
8 60 -61 0
8 -60 61 0
8 -60 -61 0
-1 3 62 0
-62 13 63 0
-63 17 -8 0
-9 16 64 0
-64 -10 65 0
-65 -20 -1 0
7 -16 66 0
-66 -11 67 0
-67 -10 -1 0
-5 -1 68 0
-5 -1 -68 0
-4 -7 69 0
-69 -17 70 0
-70 10 -1 0
-2 3 71 0
-71 5 72 0
-72 -13 4 0
17 73 74 0
17 73 -74 0
17 -73 74 0
17 -73 -74 0
-15 75 76 0
-15 75 -76 0
-15 -75 76 0
-15 -75 -76 0
-12 6 77 0
-77 13 78 0
-78 -17 7 0
14 79 80 0
14 79 -80 0
14 -79 80 0
14 -79 -80 0
-11 -13 81 0
-11 -13 -81 0
9 1 82 0
9 1 -82 0
-17 83 84 0
-17 83 -84 0
-17 -83 84 0
-17 -83 -84 0
-16 85 86 0
-16 85 -86 0
-16 -85 86 0
-16 -85 -86 0
-5 3 19 0
2 1 87 0
2 1 -87 0
19 -7 -9 0
7 19 3 0
-9 1 88 0
-88 17 -18 0
-13 4 89 0
-13 4 -89 0
-15 20 90 0
-15 20 -90 0
-3 91 92 0
-3 91 -92 0
-3 -91 92 0
-3 -91 -92 0
8 -3 93 0
-93 19 2 0
-1 14 94 0
-94 4 19 0
-17 8 95 0
-95 -16 96 0
-96 -13 -19 0
2 -13 97 0
-97 5 1 0
-1 98 99 0
-1 98 -99 0
-1 -98 99 0
-1 -98 -99 0
2 100 101 0
2 100 -101 0
2 -100 101 0
2 -100 -101 0
-3 16 102 0
-102 12 15 0
3 -6 103 0
-103 -8 11 0
18 -19 13 0
-10 -8 104 0
-104 -13 -7 0
-8 19 105 0
-8 19 -105 0
-18 106 107 0
-18 106 -107 0
-18 -106 107 0
-18 -106 -107 0
-13 -6 108 0
-13 -6 -108 0
-17 109 110 0
-17 109 -110 0
-17 -109 110 0
-17 -109 -110 0
9 -6 111 0
-111 16 11 0
2 112 113 0
2 112 -113 0
2 -112 113 0
2 -112 -113 0
2 12 114 0
-114 -7 115 0
-115 -14 -19 0
-9 116 117 0
-9 116 -117 0
-9 -116 117 0
-9 -116 -117 0
13 6 118 0
-118 20 1 0
9 4 119 0
-119 1 120 0
-120 -7 8 0
